instances/in_50_25_6_3.dzn
n = 50;
k = 25;
h = 6;
tiles = array2d(1..n, 1..2,
[ 19,21
, 13,1
, 22,13
, 23,9
, 1,4
, 6,11
, 3,10
, 10,9
, 10,20
, 22,1
, 15,23
, 15,2
, 12,7
, 9,21
, 22,5
, 3,1
, 6,5
, 7,20
, 7,25
, 3,21
, 4,5
, 8,23
, 3,13
, 25,11
, 21,22
, 22,14
, 14,8
, 11,1
, 9,10
, 12,23
, 11,9
, 16,13
, 10,24
, 19,22
, 13,11
, 4,17
, 10,22
, 21,15
, 20,2
, 10,20
, 21,1
, 11,25
, 7,7
, 24,24
, 4,16
, 16,15
, 10,8
, 7,25
, 19,19
, 23,16
]);