instances/in_50_25_6_3.lp
#const n = 50.
#const k = 25.
#const h = 6.
tile(1,19,21).
tile(2,13,1).
tile(3,22,13).
tile(4,23,9).
tile(5,1,4).
tile(6,6,11).
tile(7,3,10).
tile(8,10,9).
tile(9,10,20).
tile(10,22,1).
tile(11,15,23).
tile(12,15,2).
tile(13,12,7).
tile(14,9,21).
tile(15,22,5).
tile(16,3,1).
tile(17,6,5).
tile(18,7,20).
tile(19,7,25).
tile(20,3,21).
tile(21,4,5).
tile(22,8,23).
tile(23,3,13).
tile(24,25,11).
tile(25,21,22).
tile(26,22,14).
tile(27,14,8).
tile(28,11,1).
tile(29,9,10).
tile(30,12,23).
tile(31,11,9).
tile(32,16,13).
tile(33,10,24).
tile(34,19,22).
tile(35,13,11).
tile(36,4,17).
tile(37,10,22).
tile(38,21,15).
tile(39,20,2).
tile(40,10,20).
tile(41,21,1).
tile(42,11,25).
tile(43,7,7).
tile(44,24,24).
tile(45,4,16).
tile(46,16,15).
tile(47,10,8).
tile(48,7,25).
tile(49,19,19).
tile(50,23,16).
